56620
22, 10, 16, 39, 46, 36, 15, 52, 45, 11, 25, 31, 27, 1, 33, 42, 2, 9, 14, 12, 18, 30, 4, 54, 47, 53, 34, 19, 41, 32, 44, 8, 38, 50, 20, 35, 24, 5, 37, 7, 40, 51, 43, 13, 3, 6, 28, 55, 26, 49, 48, 17, 23, 21, 29
